(set-logic HORN)
(declare-fun inv ((_ BitVec 32) (_ BitVec 32) (_ BitVec 32) (_ BitVec 32) ) Bool)
(assert (forall ((x (_ BitVec 32)) (y (_ BitVec 32)) (w (_ BitVec 32)) (z (_ BitVec 32))) 
       (=> ( and ( = w (_ bv1 32) ) ( = z (_ bv0 32) ) ( = x (_ bv0 32) ) ( = y (_ bv0 32) ) ) (inv x y w z))))
(assert (forall ((x (_ BitVec 32)) (y (_ BitVec 32)) (w (_ BitVec 32)) (z (_ BitVec 32)) (x! (_ BitVec 32)) (y! (_ BitVec 32)) (w! (_ BitVec 32)) (z! (_ BitVec 32))) 
       (=> (and (inv x y w z) ( or ( and ( = w (_ bv1 32) ) ( = z (_ bv0 32) ) ( = x! ( bvadd x (_ bv1 32) ) ) ( = w! (_ bv0 32) ) ( = y! ( bvadd y (_ bv1 32) ) ) ( = z! (_ bv1 32) ) ) ( and ( not ( = w (_ bv1 32) ) ) ( = z (_ bv0 32) ) ( = x! x ) ( = w! w ) ( = y! ( bvadd y (_ bv1 32) ) ) ( = z! (_ bv1 32) ) ) ( and ( = w (_ bv1 32) ) ( not ( = z (_ bv0 32) ) ) ( = x! ( bvadd x (_ bv1 32) ) ) ( = w! (_ bv0 32) ) ( = y! y ) ( = z! z ) ) ( and ( not ( = w (_ bv1 32) ) ) ( not ( = z (_ bv0 32) ) ) ( = x! x ) ( = w! w ) ( = y! y ) ( = z! z ) ) )) (inv x! y! w! z!))))
(assert (forall ((x (_ BitVec 32)) (y (_ BitVec 32)) (w (_ BitVec 32)) (z (_ BitVec 32))) 
       (=> (inv x y w z) ( = x y ))))
(check-sat)
